sifdecoder -A pc64.lnx.gfo -st   SMBANK

 Problem name: SMBANK

 Double precision version will be formed

 The objective function uses 1 nonlinear group
 
 There are 64 linear equality constraints
 
 There are 117 variables bounded from below and above 
 
 
 File successfully decoded
 CUTEST: tools (double precision version) compiled successfully
 CUTEst: ipopt (double precision version) compiled successfully

******************************************************************************
This program contains Ipopt, a library for large-scale nonlinear optimization.
 Ipopt is released as open source code under the Eclipse Public License (EPL).
         For more information visit http://projects.coin-or.org/Ipopt
******************************************************************************

This is Ipopt version trunk, running with linear solver ma57.

Number of nonzeros in equality constraint Jacobian...:      234
Number of nonzeros in inequality constraint Jacobian.:        0
Number of nonzeros in Lagrangian Hessian.............:       85

Total number of variables............................:      117
                     variables with only lower bounds:        0
                variables with lower and upper bounds:      117
                     variables with only upper bounds:        0
Total number of equality constraints.................:       64
Total number of inequality constraints...............:        0
        inequality constraints with only lower bounds:        0
   inequality constraints with lower and upper bounds:        0
        inequality constraints with only upper bounds:        0

iter    objective    inf_pr   inf_du lg(mu)  ||d||  lg(rg) alpha_du alpha_pr  ls
   0 -2.4668562e+02 9.00e-02 1.69e+01  -1.0 0.00e+00    -  0.00e+00 0.00e+00   0
   1 -1.0071435e+03 8.88e-16 3.07e+01  -1.0 5.16e+00    -  3.24e-02 1.00e+00f  1
   2 -6.1566213e+03 1.07e-14 1.23e+01  -1.0 4.08e+01    -  8.58e-02 1.00e+00f  1
   3 -4.1080158e+04 3.62e-13 7.79e+00  -1.0 3.44e+02    -  9.14e-02 1.00e+00f  1
   4 -2.3674952e+05 3.98e-13 5.60e+00  -1.0 2.56e+03    -  1.13e-01 1.00e+00f  1
   5 -1.0030521e+06 4.55e-12 3.68e+00  -1.0 1.42e+04    -  1.52e-01 1.00e+00f  1
   6 -2.8156858e+06 1.46e-11 2.02e+00  -1.0 5.40e+04    -  2.31e-01 1.00e+00f  1
   7 -5.1202276e+06 6.85e-10 8.65e-01  -1.0 1.25e+05    -  3.83e-01 1.00e+00f  1
   8 -6.6550042e+06 8.82e-11 3.04e-01  -1.0 1.81e+05    -  6.05e-01 1.00e+00f  1
   9 -7.0952477e+06 4.07e-10 6.94e-02  -1.0 1.54e+05    -  7.38e-01 1.00e+00f  1
iter    objective    inf_pr   inf_du lg(mu)  ||d||  lg(rg) alpha_du alpha_pr  ls
  10 -7.1288605e+06 2.04e-10 6.38e-03  -1.0 5.69e+04    -  9.03e-01 1.00e+00f  1
  11 -7.1292918e+06 8.73e-11 2.34e-04  -1.0 7.62e+03    -  9.84e-01 1.00e+00f  1
  12 -7.1292920e+06 8.55e-11 4.55e-06  -1.0 1.71e+02    -  9.91e-01 1.00e+00f  1
  13 -7.1292920e+06 4.26e-09 4.15e-14  -1.0 1.07e-01    -  1.00e+00 1.00e+00h  1
  14 -7.1292920e+06 8.73e-11 1.10e-03  -2.5 7.29e-01    -  1.00e+00 1.00e+00f  1
  15 -7.1292920e+06 7.28e-11 3.50e-06  -3.8 2.16e-02    -  1.00e+00 1.00e+00h  1
  16 -7.1292920e+06 1.16e-10 3.62e-09  -5.7 1.13e-03    -  1.00e+00 1.00e+00h  1
  17 -7.1292920e+06 1.06e-10 4.74e-13  -8.6 1.39e-05    -  1.00e+00 1.00e+00h  1

Number of Iterations....: 17

                                   (scaled)                 (unscaled)
Objective...............:  -7.1292920000000000e+06   -7.1292920000000000e+06
Dual infeasibility......:   4.7391297578549730e-13    4.7391297578549730e-13
Constraint violation....:   1.0550138540565968e-10    1.0550138540565968e-10
Complementarity.........:   2.5078080961929331e-09    2.5078080961929331e-09
Overall NLP error.......:   2.5078080961929331e-09    2.5078080961929331e-09


Number of objective function evaluations             = 18
Number of objective gradient evaluations             = 18
Number of equality constraint evaluations            = 18
Number of inequality constraint evaluations          = 0
Number of equality constraint Jacobian evaluations   = 18
Number of inequality constraint Jacobian evaluations = 0
Number of Lagrangian Hessian evaluations             = 17
Total CPU secs in IPOPT (w/o function evaluations)   =      0.055
Total CPU secs in NLP function evaluations           =      0.005

EXIT: Optimal Solution Found.

************************ CUTEst statistics ************************


 Package used            :  IPOPT
 Problem                 :  SMBANK    
 # variables             =             117
 # constraints           =              64
 # objective functions   =        0.3700000E+02
 # objective gradients   =        0.1900000E+02
 # objective Hessians    =        0.1800000E+02
 # Hessian-vector prdct  =        0.0000000E+00
 # constraints functions =        0.3800000E+02
 # constraints gradients =        0.2000000E+02
 # constraints Hessians  =        0.1800000E+02
 Exit code               =               0
 Final f                 =       -7.1292920000000000D+06
 Bounds feasibility      =        0.0000000000000000D+00
 Set up time             =            0.01 seconds
 Solve time              =            0.13 seconds


******************************************************************

